Strangers={
<1{2 3 4 7 9 10 11 14 15 17 18 20 22 23 25 28 29 32 33 34 35 36 38 39 41 43 44 46 49 55 56 61 64 66 69 72 74}>
<2{3 4 5 8 9 10 11 13 14 16 17 18 25 33 34 36 37 38 41 43 44 45 53 54 55 56 59 63 64 65 67 74}>
<3{1 6 7 9 14 23 24 25 26 28 30 32 34 35 40 44 45 46 48 49 50 51 52 56 59 60 61 63 65 67 68 73 75}>
<4{2 6 7 8 9 11 13 16 23 24 25 28 29 31 32 34 35 40 41 42 44 48 50 56 57 59 64 66 67 68 69 70 72 74 75}>
<5{6 8 9 10 12 13 14 15 16 19 20 21 26 30 31 34 37 41 42 45 46 47 48 50 56 57 59 61 62 67 69 71 72 74}>
<6{1 2 3 4 5 8 11 15 17 20 22 23 25 26 29 30 36 39 40 42 47 48 49 56 57 58 59 63 64 65 68 69 70 74}>
<7{1 3 5 8 9 10 11 13 14 17 20 25 28 32 34 35 37 38 39 41 42 44 46 47 52 53 54 55 57 58 59 61 65 68 69 70 71 72}>
<8{4 5 6 12 13 14 16 17 18 20 24 25 27 28 30 33 34 35 36 38 39 41 44 45 48 51 52 57 58 59 60 61 63 64 65 66 68 71 72}>
<9{1 4 5 6 7 10 11 12 15 18 19 22 23 24 28 29 32 33 35 36 40 43 45 46 50 52 54 56 62 67 68 69 70 71 72 74}>
<10{1 2 3 4 5 6 8 9 11 15 16 17 22 27 28 32 35 38 39 40 43 44 49 50 51 52 54 58 60 67 69 70 71}>
<11{2 4 5 6 12 13 16 18 19 20 21 22 25 27 29 31 33 34 36 37 38 39 40 43 44 45 48 53 55 56 57 59 61 67 68 70 71 72 73 75}>
<12{1 3 7 9 10 13 14 15 19 25 26 33 36 38 42 44 45 47 53 57 58 59 60 61 62 64 67 71 74 75}>
<13{1 5 6 9 15 16 17 19 21 22 24 26 29 30 32 33 38 39 42 45 48 49 50 51 53 54 55 58 61 63 64 65 66 67 69 70}>
<14{2 6 9 10 12 13 15 18 19 20 21 22 24 25 26 28 29 30 31 32 33 35 36 40 41 43 44 45 47 50 51 52 53 54 55 57 61 62 64 69 70 71 74}>
<15{2 4 6 7 8 10 11 12 14 21 23 26 29 31 34 35 36 38 42 45 47 49 51 54 59 62 63 64 67 68 69 71 73 75}>
<16{4 5 8 10 11 13 15 17 18 19 22 23 24 30 32 33 35 36 39 41 43 46 51 52 56 58 64 65 68 69 71 74 75}>
<17{1 2 4 8 9 11 12 13 14 16 18 20 22 25 26 28 29 33 35 36 39 41 44 46 50 51 54 55 57 59 63 65 66 67 72 74 75}>
<18{3 4 7 10 11 13 17 20 22 24 26 28 30 31 33 34 35 37 39 40 41 43 44 46 48 49 52 54 57 58 59 60 61 64 65 67 68 70 72 74 75}>
<19{3 9 10 13 15 18 21 22 26 28 29 34 37 43 45 47 48 49 51 53 57 59 62 64 66 67 70 71 72 73}>
<20{1 3 4 6 7 8 12 13 16 17 18 22 24 25 26 28 29 30 31 34 36 37 38 39 41 43 44 45 47 51 54 58 60 61 62 64 71 73}>
<21{1 2 3 5 7 11 12 13 15 16 18 19 22 24 26 27 31 33 35 37 45 46 47 49 50 52 54 56 57 58 59 61 63 64 65 66 67 70 73 75}>
<22{1 3 9 11 12 16 18 21 23 24 27 30 33 38 39 40 43 44 46 48 50 53 55 56 57 58 59 61 64 65 66 69 73 75}>
<23{1 7 10 14 15 16 18 22 28 29 33 34 35 42 43 44 47 48 49 51 52 53 54 55 58 59 60 61 63 64 66 68 69 72 73 74}>
<24{1 2 5 6 9 11 12 14 16 18 20 21 26 28 31 36 38 41 43 44 47 54 55 58 59 62 65 67 70 71 74 75}>
<25{1 2 4 5 12 15 19 20 21 24 28 30 33 39 40 41 42 43 44 45 48 49 50 51 54 58 59 63 64 65 69 70 72}>
<26{2 3 4 5 8 9 10 11 12 13 15 18 22 24 28 29 30 33 36 37 38 39 42 43 44 45 47 48 49 50 51 52 54 56 61 64 65 66 70 71 72 73 74 75}>
<27{4 10 11 12 13 14 15 17 18 20 22 25 28 35 36 38 39 42 43 44 48 49 54 56 57 58 59 60 61 64 65 66 72 73 74}>
<28{1 2 3 5 6 9 10 11 12 13 14 17 18 20 21 22 25 26 27 32 33 35 36 38 39 42 43 44 45 50 51 52 57 60 61 63 64 69 70 73 74 75}>
<29{1 2 3 4 5 6 9 11 17 18 19 20 21 24 25 26 27 28 30 33 38 39 48 49 53 54 55 56 57 59 60 62 64 65 66 70 71 72 73 74}>
<30{1 2 3 4 8 9 12 17 18 22 23 24 28 29 31 32 33 40 41 44 45 47 48 49 52 53 55 57 58 60 63 66 67 68 69 70 72 73 75}>
<31{7 8 10 12 13 15 18 19 23 24 25 29 30 34 35 36 40 47 48 49 50 51 52 53 56 57 59 61 64 65 66 68 72 75}>
<32{3 5 12 14 19 21 25 27 28 30 31 35 36 38 40 43 44 45 46 47 50 51 53 54 55 57 58 61 63 65 69 70 71 72 74 75}>
<33{3 4 5 10 11 15 16 17 20 21 25 26 28 29 31 32 35 37 40 41 42 43 44 45 48 49 55 58 61 62 67 70 72 75}>
<34{1 2 3 4 5 6 7 10 11 14 16 17 18 19 25 26 27 28 30 31 33 37 38 39 40 43 45 48 49 51 54 55 57 58 59 62 64 67 70 73 74 75}>
<35{2 4 5 6 10 11 13 15 19 20 21 22 24 26 28 29 32 34 37 39 40 41 45 46 47 52 53 59 61 64 67 69 71 73 75}>
<36{5 6 7 10 14 17 20 21 22 24 25 28 29 30 33 34 38 39 40 41 42 45 46 49 50 51 53 56 57 58 59 61 64 67 68 71}>
<37{1 5 6 8 12 13 14 22 27 28 35 41 42 43 47 48 49 50 51 52 56 57 58 59 63 67 68 70 72 73}>
<38{2 4 9 11 15 16 17 21 22 23 24 25 29 33 35 37 44 47 49 50 53 57 59 60 62 63 64 65 66 67 69 70 71 72 73 75}>
<39{1 5 6 8 11 14 16 17 18 22 23 24 25 29 30 32 33 37 40 43 45 46 48 50 51 54 57 58 61 62 63 70 71 72 73 74 75}>
<40{1 2 4 5 7 11 13 14 15 16 17 18 19 21 30 31 32 33 37 43 44 45 46 47 48 49 51 52 56 58 61 62 63 64 65 66 69 74 75}>
<41{2 4 5 9 15 16 17 20 21 23 24 25 26 28 30 31 33 34 35 38 39 42 45 47 48 52 53 54 55 56 57 60 61 62 63 65 66 68 69 70 73}>
<42{1 3 4 5 7 8 13 16 20 21 22 23 25 26 27 28 30 32 33 34 35 37 39 40 43 44 47 49 50 52 53 54 55 59 60 61 62 64 65 66 67 71 72 74}>
<43{1 2 3 4 14 17 20 21 23 24 26 28 29 30 32 33 36 37 38 40 41 45 46 49 50 55 57 61 64 66 67 68 69 70 72 73 74 75}>
<44{2 3 5 6 7 8 9 10 15 16 17 19 23 28 29 30 31 33 38 41 43 46 47 51 52 53 55 57 64 66 68 71 72 73 75}>
<45{1 3 8 12 13 17 18 21 23 24 28 30 32 33 34 36 40 42 43 47 49 51 56 57 59 61 62 65 68 70 71 72}>
<46{1 2 5 8 9 13 15 16 18 21 22 23 27 28 29 30 31 32 34 35 37 38 39 40 42 43 44 48 49 50 53 54 55 56 58 59 60 61 62 64 65 66 68 69 70 72 75}>
<47{2 3 5 7 8 9 10 11 13 15 18 28 30 33 36 37 38 39 40 41 44 46 49 51 56 59 60 62 63 66 67 68 69 71 72 73}>
<48{2 3 6 8 11 12 13 18 19 20 21 23 24 25 26 34 35 36 37 38 39 40 41 42 44 45 46 49 52 61 62 66 67 68 69 70 71 72 73 74 75}>
<49{5 6 7 9 10 12 13 14 16 17 18 20 22 23 24 26 27 28 29 30 31 34 35 37 39 42 44 47 48 53 54 55 56 58 68 69 70 72 73}>
<50{3 5 6 7 10 12 13 14 15 19 20 21 22 25 26 27 33 34 36 37 38 40 42 43 45 52 53 54 55 56 57 59 60 61 63 65 69 70 71 72 73}>
<51{1 4 5 6 7 8 9 11 12 14 15 16 17 20 21 23 26 29 30 31 33 38 40 42 44 47 48 49 50 52 54 55 56 62 64 66 68 73}>
<52{1 3 6 8 10 17 20 23 24 26 28 29 30 31 33 34 35 37 38 41 42 48 49 50 51 53 54 57 58 59 60 63 64 66 70 72 73 74 75}>
<53{5 6 11 14 15 16 19 20 23 24 29 30 40 41 42 44 46 47 48 50 52 54 55 57 58 59 61 62 63 66 71 73}>
<54{3 4 7 8 10 11 14 15 18 22 23 24 25 27 28 30 34 35 37 38 45 46 48 50 53 55 56 57 58 63 65 66 67 69 71 72 74}>
<55{3 8 9 14 15 16 17 19 20 21 23 25 26 27 29 32 34 35 36 37 38 39 41 44 46 49 50 51 52 53 54 56 57 58 60 61 62 63 67 68 69 70 72 74}>
<56{1 3 4 5 7 11 12 14 15 16 17 18 21 23 24 27 29 32 33 34 37 41 42 45 46 48 49 52 53 55 58 60 62 64 65 67 69 72 73 74 75}>
<57{2 4 6 9 12 15 17 18 19 21 26 27 28 29 32 34 36 37 41 42 47 48 49 50 52 55 56 60 61 64 68 70 72 74 75}>
<58{1 2 3 6 7 12 15 16 19 20 21 25 27 31 33 34 36 38 42 44 50 52 55 56 57 59 60 61 62 64 65 67 68 70 72 73 74 75}>
<59{1 2 8 9 10 11 15 17 18 19 20 24 27 30 33 34 35 36 37 43 44 48 49 50 57 58 64 65 67 68 69 70 71}>
<60{3 4 8 9 10 13 16 17 18 21 23 26 27 30 32 34 37 39 40 43 49 51 53 54 55 56 58 59 61 62 64 67 68 69 71 72 73}>
<61{2 9 10 13 15 17 18 19 20 21 24 27 29 30 31 33 40 43 46 47 48 56 58 59 60 62 63 64 66 67 68 69 72 74 75}>
<62{2 4 5 8 9 10 11 12 13 16 19 22 23 25 27 30 31 32 33 38 41 42 43 44 45 46 51 52 53 54 55 56 59 63 66 67 69 70 71 74 75}>
<63{1 2 4 7 8 14 17 20 21 22 24 26 28 29 30 31 32 33 34 35 37 47 49 50 51 52 53 54 56 57 58 64 65 66 73 74}>
<64{2 3 5 6 7 10 12 13 14 16 17 18 19 20 23 26 32 33 34 36 38 39 40 42 43 46 48 49 51 52 53 54 59 60 61 63 67 70 71 72 73 75}>
<65{4 9 10 11 14 16 17 20 24 30 32 34 35 37 42 43 46 47 48 49 52 57 59 62 63 64 67 68 73 74}>
<66{1 2 3 4 8 15 16 17 18 19 20 21 22 27 29 31 34 36 41 42 46 47 49 51 52 53 58 60 61 62 64 67 70 72}>
<67{1 2 3 5 7 8 10 11 15 16 17 19 28 29 31 33 34 35 39 40 41 42 45 46 49 51 53 59 60 61 63 64 65 68 69 72 74 75}>
<68{2 7 8 10 11 15 20 23 24 27 28 29 32 33 35 38 42 43 44 45 46 47 56 58 59 62 65 70 72 74}>
<69{1 3 5 6 7 9 11 14 16 22 27 29 32 33 34 38 39 41 46 47 48 49 50 51 54 59 63 65 66 68 70 71}>
<70{3 4 9 11 13 14 19 22 23 24 28 29 30 31 33 37 39 40 42 44 50 51 52 54 56 57 58 59 62 67 69 71 72 73 75}>
<71{2 3 4 5 6 7 8 12 14 20 22 23 24 27 29 31 36 41 42 46 50 54 56 57 59 60 63 65 70 72 75}>
<72{1 4 6 8 10 15 18 19 20 21 22 24 25 26 32 36 37 38 40 41 42 44 45 47 51 52 53 54 55 57 65 67 68 70 73 75}>
<73{1 2 3 4 5 8 15 19 20 23 25 27 28 30 31 32 33 35 36 37 38 40 41 42 43 45 46 47 48 49 51 52 53 54 55 56 57 59 60 61 62 63 65 67 68 69 71 72 74 75}>
<74{1 2 3 5 7 9 10 11 12 13 16 23 24 25 31 33 34 35 37 39 41 44 45 47 48 50 52 53 54 56 57 60 62 69 70 71 72}>
<75{1 2 4 5 7 8 9 10 12 15 17 23 27 28 29 31 32 41 46 47 48 49 51 53 59 60 61 62 64 66 67 68 70 73 74}>
};